SimulationType                MonteCarlo
NumberOfCycles                NCYCLE
NumberOfInitializationCycles  NCYCLE
PrintEvery                    1000
PrintForcefieldToOutput       no
Movies                        Yes
WriteMoviesEvery              1000

CutOffVDW                     CUTOFF
CutOffCoulomb                 CUTOFF
Forcefield                    Local
UseChargesFromCIFFile         yes
ChargeMethod                  Ewald
EwaldPrecision                1e-6

Framework 0
FrameworkName CIFFILE
UnitCells UC_X UC_Y UC_Z
ExternalTemperature TEMPERATURE
ExternalPressure PRESSURE

Component 0 MoleculeName             ADSORBATE
            MoleculeDefinition       Local
            TranslationProbability   1.0
            RotationProbability      1.0
            ReinsertionProbability   1.0
            SwapProbability          2.0
            CreateNumberOfMolecules  0
